1753
36 34 76 12 69 99 23 14 18 9 32 81 79 27 49 86 29 85 54 15 10 94 38 96 65 24 37 87 1 68 77 28 43 47 57 67 84 60 2 63 83 16 45 62 89 21 35 90 75 3 64 42 30 88 91 5 80 95 39 78 6 71 73 72 97 31 70 59 26 58 48 56 66 50 4 53 82 46 51 92 11 7 33 22 55 20 44 8 98 17 52 41 74 40 61 25 93 19 13 
